12
0 1 2 3 4 5 6 7 8 9 10 11
1 0 2 3 4 5 5 1 2 3 4 5
2 2 0 3 4 4 4 1 2 3 4 5
3 3 3 0 4 4 3 1 2 3 4 5
4 4 4 4 0 5 2 1 2 3 4 5
5 5 4 4 5 0 1 1 2 3 4 5
6 5 4 3 2 1 0 1 2 3 4 5
7 1 1 1 1 1 1 0 2 3 4 5
8 2 2 2 2 2 2 2 0 3 4 5
9 3 3 3 3 3 3 3 3 0 4 5
10 4 4 4 4 4 4 4 4 4 0 5
11 5 5 5 5 5 5 5 5 5 5 0
